p cnf 1108 2858
-1 -33 0 
-1 -616 -402 0 
-1 616 402 0 
1 2 33 0 
1 -616 402 0 
1 616 -402 0 
-2 -33 0 
-2 -465 0 
-2 -404 466 0 
2 -466 0 
2 404 465 0 
-3 -34 0 
-3 -468 0 
-3 -406 469 0 
3 -469 0 
3 -33 34 0 
3 406 468 0 
-4 -35 0 
-4 -471 0 
-4 -408 472 0 
4 -472 0 
4 -34 35 0 
4 408 471 0 
-5 -36 0 
-5 -474 0 
-5 -410 475 0 
5 -475 0 
5 -35 36 0 
5 410 474 0 
-6 -37 0 
-6 -477 0 
-6 -412 478 0 
6 -478 0 
6 -36 37 0 
6 412 477 0 
-7 -38 0 
-7 -480 0 
-7 -414 481 0 
7 -481 0 
7 -37 38 0 
7 414 480 0 
-8 -39 0 
-8 -483 0 
-8 -416 484 0 
8 -484 0 
8 -38 39 0 
8 416 483 0 
-9 -40 0 
-9 -486 0 
-9 -418 487 0 
9 -487 0 
9 -39 40 0 
9 418 486 0 
-10 -41 0 
-10 -489 0 
-10 -420 490 0 
10 -490 0 
10 -40 41 0 
10 420 489 0 
-11 -42 0 
-11 -492 0 
-11 -422 493 0 
11 -493 0 
11 -41 42 0 
11 422 492 0 
-12 -43 0 
-12 -495 0 
-12 -424 496 0 
12 -496 0 
12 -42 43 0 
12 424 495 0 
-13 -44 0 
-13 -498 0 
-13 -426 499 0 
13 -499 0 
13 -43 44 0 
13 426 498 0 
-14 -45 0 
-14 -501 0 
-14 -428 502 0 
14 -502 0 
14 -44 45 0 
14 428 501 0 
-15 -46 0 
-15 -504 0 
-15 -430 505 0 
15 -505 0 
15 -45 46 0 
15 430 504 0 
-16 -47 0 
-16 -507 0 
-16 -432 508 0 
16 -508 0 
16 -46 47 0 
16 432 507 0 
-17 -48 0 
-17 -510 0 
-17 -434 511 0 
17 -511 0 
17 -47 48 0 
17 434 510 0 
-18 -49 0 
-18 -513 0 
-18 -436 514 0 
18 -514 0 
18 -48 49 0 
18 436 513 0 
-19 -50 0 
-19 -516 0 
-19 -438 517 0 
19 -517 0 
19 -49 50 0 
19 438 516 0 
-20 -51 0 
-20 -519 0 
-20 -440 520 0 
20 -520 0 
20 -50 51 0 
20 440 519 0 
-21 -52 0 
-21 -522 0 
-21 -442 523 0 
21 -523 0 
21 -51 52 0 
21 442 522 0 
-22 -53 0 
-22 -525 0 
-22 -444 526 0 
22 -526 0 
22 -52 53 0 
22 444 525 0 
-23 -54 0 
-23 -528 0 
-23 -446 529 0 
23 -529 0 
23 -53 54 0 
23 446 528 0 
-24 -55 0 
-24 -531 0 
-24 -448 532 0 
24 -532 0 
24 -54 55 0 
24 448 531 0 
-25 -56 0 
-25 -534 0 
-25 -450 535 0 
25 -535 0 
25 -55 56 0 
25 450 534 0 
-26 -57 0 
-26 -537 0 
-26 -452 538 0 
26 -538 0 
26 -56 57 0 
26 452 537 0 
-27 -58 0 
-27 -540 0 
-27 -454 541 0 
27 -541 0 
27 -57 58 0 
27 454 540 0 
-28 -59 0 
-28 -543 0 
-28 -456 544 0 
28 -544 0 
28 -58 59 0 
28 456 543 0 
-29 -60 0 
-29 -546 0 
-29 -458 547 0 
29 -547 0 
29 -59 60 0 
29 458 546 0 
-30 -61 0 
-30 -549 0 
-30 -460 550 0 
30 -550 0 
30 -60 61 0 
30 460 549 0 
-31 -62 0 
-31 -552 0 
-31 -462 553 0 
31 -553 0 
31 -61 62 0 
31 462 552 0 
-32 -678 0 
-32 -464 555 0 
32 -62 0 
32 -555 0 
32 464 678 0 
33 -34 0 
34 -35 0 
35 -36 0 
36 -37 0 
37 -38 0 
38 -39 0 
39 -40 0 
40 -41 0 
41 -42 0 
42 -43 0 
43 -44 0 
44 -45 0 
45 -46 0 
46 -47 0 
47 -48 0 
48 -49 0 
49 -50 0 
50 -51 0 
51 -52 0 
52 -53 0 
53 -54 0 
54 -55 0 
55 -56 0 
56 -57 0 
57 -58 0 
58 -59 0 
59 -60 0 
60 -61 0 
61 -62 0 
-63 -95 0 
-63 -401 -219 0 
-63 401 219 0 
63 64 95 0 
63 -401 219 0 
63 401 -219 0 
-64 -95 0 
-64 -250 0 
-64 -220 251 0 
64 -251 0 
64 220 250 0 
-65 -96 0 
-65 -253 0 
-65 -221 254 0 
65 -254 0 
65 -95 96 0 
65 221 253 0 
-66 -97 0 
-66 -256 0 
-66 -222 257 0 
66 -257 0 
66 -96 97 0 
66 222 256 0 
-67 -98 0 
-67 -259 0 
-67 -223 260 0 
67 -260 0 
67 -97 98 0 
67 223 259 0 
-68 -99 0 
-68 -262 0 
-68 -224 263 0 
68 -263 0 
68 -98 99 0 
68 224 262 0 
-69 -100 0 
-69 -265 0 
-69 -225 266 0 
69 -266 0 
69 -99 100 0 
69 225 265 0 
-70 -101 0 
-70 -268 0 
-70 -226 269 0 
70 -269 0 
70 -100 101 0 
70 226 268 0 
-71 -102 0 
-71 -271 0 
-71 -227 272 0 
71 -272 0 
71 -101 102 0 
71 227 271 0 
-72 -103 0 
-72 -274 0 
-72 -228 275 0 
72 -275 0 
72 -102 103 0 
72 228 274 0 
-73 -104 0 
-73 -277 0 
-73 -229 278 0 
73 -278 0 
73 -103 104 0 
73 229 277 0 
-74 -105 0 
-74 -280 0 
-74 -230 281 0 
74 -281 0 
74 -104 105 0 
74 230 280 0 
-75 -106 0 
-75 -283 0 
-75 -231 284 0 
75 -284 0 
75 -105 106 0 
75 231 283 0 
-76 -107 0 
-76 -286 0 
-76 -232 287 0 
76 -287 0 
76 -106 107 0 
76 232 286 0 
-77 -108 0 
-77 -289 0 
-77 -233 290 0 
77 -290 0 
77 -107 108 0 
77 233 289 0 
-78 -109 0 
-78 -292 0 
-78 -234 293 0 
78 -293 0 
78 -108 109 0 
78 234 292 0 
-79 -110 0 
-79 -295 0 
-79 -235 296 0 
79 -296 0 
79 -109 110 0 
79 235 295 0 
-80 -111 0 
-80 -298 0 
-80 -236 299 0 
80 -299 0 
80 -110 111 0 
80 236 298 0 
-81 -112 0 
-81 -301 0 
-81 -237 302 0 
81 -302 0 
81 -111 112 0 
81 237 301 0 
-82 -113 0 
-82 -304 0 
-82 -238 305 0 
82 -305 0 
82 -112 113 0 
82 238 304 0 
-83 -114 0 
-83 -307 0 
-83 -239 308 0 
83 -308 0 
83 -113 114 0 
83 239 307 0 
-84 -115 0 
-84 -310 0 
-84 -240 311 0 
84 -311 0 
84 -114 115 0 
84 240 310 0 
-85 -116 0 
-85 -313 0 
-85 -241 314 0 
85 -314 0 
85 -115 116 0 
85 241 313 0 
-86 -117 0 
-86 -316 0 
-86 -242 317 0 
86 -317 0 
86 -116 117 0 
86 242 316 0 
-87 -118 0 
-87 -319 0 
-87 -243 320 0 
87 -320 0 
87 -117 118 0 
87 243 319 0 
-88 -119 0 
-88 -322 0 
-88 -244 323 0 
88 -323 0 
88 -118 119 0 
88 244 322 0 
-89 -120 0 
-89 -325 0 
-89 -245 326 0 
89 -326 0 
89 -119 120 0 
89 245 325 0 
-90 -121 0 
-90 -328 0 
-90 -246 329 0 
90 -329 0 
90 -120 121 0 
90 246 328 0 
-91 -122 0 
-91 -331 0 
-91 -247 332 0 
91 -332 0 
91 -121 122 0 
91 247 331 0 
-92 -123 0 
-92 -334 0 
-92 -248 335 0 
92 -335 0 
92 -122 123 0 
92 248 334 0 
-93 -124 0 
-93 -337 0 
-93 -249 338 0 
93 -338 0 
93 -123 124 0 
93 249 337 0 
-94 -463 0 
-94 188 340 0 
94 -124 0 
94 -340 0 
94 -188 463 0 
95 -96 0 
96 -97 0 
97 -98 0 
98 -99 0 
99 -100 0 
100 -101 0 
101 -102 0 
102 -103 0 
103 -104 0 
104 -105 0 
105 -106 0 
106 -107 0 
107 -108 0 
108 -109 0 
109 -110 0 
110 -111 0 
111 -112 0 
112 -113 0 
113 -114 0 
114 -115 0 
115 -116 0 
116 -117 0 
117 -118 0 
118 -119 0 
119 -120 0 
120 -121 0 
121 -122 0 
122 -123 0 
123 -124 0 
-125 -1049 0 
-125 -831 -617 0 
-125 831 617 0 
125 -831 617 0 
125 831 -617 0 
125 126 1049 0 
-126 -680 0 
-126 -1049 0 
-126 -619 681 0 
126 -681 0 
126 619 680 0 
-127 -683 0 
-127 -1050 0 
-127 -621 684 0 
127 -684 0 
127 621 683 0 
127 -1049 1050 0 
-128 -686 0 
-128 -1051 0 
-128 -623 687 0 
128 -687 0 
128 623 686 0 
128 -1050 1051 0 
-129 -689 0 
-129 -1052 0 
-129 -625 690 0 
129 -690 0 
129 625 689 0 
129 -1051 1052 0 
-130 -692 0 
-130 -1053 0 
-130 -627 693 0 
130 -693 0 
130 627 692 0 
130 -1052 1053 0 
-131 -695 0 
-131 -1054 0 
-131 -629 696 0 
131 -696 0 
131 629 695 0 
131 -1053 1054 0 
-132 -698 0 
-132 -1055 0 
-132 -631 699 0 
132 -699 0 
132 631 698 0 
132 -1054 1055 0 
-133 -701 0 
-133 -1056 0 
-133 -633 702 0 
133 -702 0 
133 633 701 0 
133 -1055 1056 0 
-134 -704 0 
-134 -1057 0 
-134 -635 705 0 
134 -705 0 
134 635 704 0 
134 -1056 1057 0 
-135 -707 0 
-135 -1058 0 
-135 -637 708 0 
135 -708 0 
135 637 707 0 
135 -1057 1058 0 
-136 -710 0 
-136 -1059 0 
-136 -639 711 0 
136 -711 0 
136 639 710 0 
136 -1058 1059 0 
-137 -713 0 
-137 -1060 0 
-137 -641 714 0 
137 -714 0 
137 641 713 0 
137 -1059 1060 0 
-138 -716 0 
-138 -1061 0 
-138 -643 717 0 
138 -717 0 
138 643 716 0 
138 -1060 1061 0 
-139 -719 0 
-139 -1062 0 
-139 -645 720 0 
139 -720 0 
139 645 719 0 
139 -1061 1062 0 
-140 -722 0 
-140 -1063 0 
-140 -647 723 0 
140 -723 0 
140 647 722 0 
140 -1062 1063 0 
-141 -725 0 
-141 -1064 0 
-141 -649 726 0 
141 -726 0 
141 649 725 0 
141 -1063 1064 0 
-142 -728 0 
-142 -1065 0 
-142 -651 729 0 
142 -729 0 
142 651 728 0 
142 -1064 1065 0 
-143 -731 0 
-143 -1066 0 
-143 -653 732 0 
143 -732 0 
143 653 731 0 
143 -1065 1066 0 
-144 -734 0 
-144 -1067 0 
-144 -655 735 0 
144 -735 0 
144 655 734 0 
144 -1066 1067 0 
-145 -737 0 
-145 -1068 0 
-145 -657 738 0 
145 -738 0 
145 657 737 0 
145 -1067 1068 0 
-146 -740 0 
-146 -1069 0 
-146 -659 741 0 
146 -741 0 
146 659 740 0 
146 -1068 1069 0 
-147 -743 0 
-147 -1070 0 
-147 -661 744 0 
147 -744 0 
147 661 743 0 
147 -1069 1070 0 
-148 -746 0 
-148 -1071 0 
-148 -663 747 0 
148 -747 0 
148 663 746 0 
148 -1070 1071 0 
-149 -749 0 
-149 -1072 0 
-149 -665 750 0 
149 -750 0 
149 665 749 0 
149 -1071 1072 0 
-150 -752 0 
-150 -1073 0 
-150 -667 753 0 
150 -753 0 
150 667 752 0 
150 -1072 1073 0 
-151 -755 0 
-151 -1074 0 
-151 -669 756 0 
151 -756 0 
151 669 755 0 
151 -1073 1074 0 
-152 -758 0 
-152 -1075 0 
-152 -671 759 0 
152 -759 0 
152 671 758 0 
152 -1074 1075 0 
-153 -761 0 
-153 -1076 0 
-153 -673 762 0 
153 -762 0 
153 673 761 0 
153 -1075 1076 0 
-154 -764 0 
-154 -1077 0 
-154 -675 765 0 
154 -765 0 
154 675 764 0 
154 -1076 1077 0 
-155 -767 0 
-155 -1078 0 
-155 -677 768 0 
155 -768 0 
155 677 767 0 
155 -1077 1078 0 
-156 -893 0 
-156 -679 770 0 
156 -770 0 
156 -1078 0 
156 679 893 0 
-157 -1079 0 
-157 -219 -218 0 
-157 219 218 0 
157 -219 218 0 
157 219 -218 0 
157 158 1079 0 
-158 -218 0 
-158 -1079 0 
-158 -220 -217 0 
-158 220 217 0 
158 -217 218 0 
158 -220 217 0 
158 220 -217 0 
-159 -217 0 
-159 -1080 0 
-159 -221 -216 0 
-159 221 216 0 
159 -216 217 0 
159 -221 216 0 
159 221 -216 0 
159 -1079 1080 0 
-160 -216 0 
-160 -1081 0 
-160 -222 -215 0 
-160 222 215 0 
160 -215 216 0 
160 -222 215 0 
160 222 -215 0 
160 -1080 1081 0 
-161 -215 0 
-161 -1082 0 
-161 -223 -214 0 
-161 223 214 0 
161 -214 215 0 
161 -223 214 0 
161 223 -214 0 
161 -1081 1082 0 
-162 -214 0 
-162 -1083 0 
-162 -224 -213 0 
-162 224 213 0 
162 -213 214 0 
162 -224 213 0 
162 224 -213 0 
162 -1082 1083 0 
-163 -213 0 
-163 -1084 0 
-163 -225 -212 0 
-163 225 212 0 
163 -212 213 0 
163 -225 212 0 
163 225 -212 0 
163 -1083 1084 0 
-164 -212 0 
-164 -1085 0 
-164 -226 -211 0 
-164 226 211 0 
164 -211 212 0 
164 -226 211 0 
164 226 -211 0 
164 -1084 1085 0 
-165 -211 0 
-165 -1086 0 
-165 -227 -210 0 
-165 227 210 0 
165 -210 211 0 
165 -227 210 0 
165 227 -210 0 
165 -1085 1086 0 
-166 -210 0 
-166 -1087 0 
-166 -228 -209 0 
-166 228 209 0 
166 -209 210 0 
166 -228 209 0 
166 228 -209 0 
166 -1086 1087 0 
-167 -209 0 
-167 -1088 0 
-167 -229 -208 0 
-167 229 208 0 
167 -208 209 0 
167 -229 208 0 
167 229 -208 0 
167 -1087 1088 0 
-168 -208 0 
-168 -1089 0 
-168 -230 -207 0 
-168 230 207 0 
168 -207 208 0 
168 -230 207 0 
168 230 -207 0 
168 -1088 1089 0 
-169 -207 0 
-169 -1090 0 
-169 -231 -206 0 
-169 231 206 0 
169 -206 207 0 
169 -231 206 0 
169 231 -206 0 
169 -1089 1090 0 
-170 -206 0 
-170 -1091 0 
-170 -232 -205 0 
-170 232 205 0 
170 -205 206 0 
170 -232 205 0 
170 232 -205 0 
170 -1090 1091 0 
-171 -205 0 
-171 -1092 0 
-171 -233 -204 0 
-171 233 204 0 
171 -204 205 0 
171 -233 204 0 
171 233 -204 0 
171 -1091 1092 0 
-172 -204 0 
-172 -1093 0 
-172 -234 -203 0 
-172 234 203 0 
172 -203 204 0 
172 -234 203 0 
172 234 -203 0 
172 -1092 1093 0 
-173 -203 0 
-173 -1094 0 
-173 -235 -202 0 
-173 235 202 0 
173 -202 203 0 
173 -235 202 0 
173 235 -202 0 
173 -1093 1094 0 
-174 -202 0 
-174 -1095 0 
-174 -236 -201 0 
-174 236 201 0 
174 -201 202 0 
174 -236 201 0 
174 236 -201 0 
174 -1094 1095 0 
-175 -201 0 
-175 -1096 0 
-175 -237 -200 0 
-175 237 200 0 
175 -200 201 0 
175 -237 200 0 
175 237 -200 0 
175 -1095 1096 0 
-176 -200 0 
-176 -1097 0 
-176 -238 -199 0 
-176 238 199 0 
176 -199 200 0 
176 -238 199 0 
176 238 -199 0 
176 -1096 1097 0 
-177 -199 0 
-177 -1098 0 
-177 -239 -198 0 
-177 239 198 0 
177 -198 199 0 
177 -239 198 0 
177 239 -198 0 
177 -1097 1098 0 
-178 -198 0 
-178 -1099 0 
-178 -240 -197 0 
-178 240 197 0 
178 -197 198 0 
178 -240 197 0 
178 240 -197 0 
178 -1098 1099 0 
-179 -197 0 
-179 -1100 0 
-179 -241 -196 0 
-179 241 196 0 
179 -196 197 0 
179 -241 196 0 
179 241 -196 0 
179 -1099 1100 0 
-180 -196 0 
-180 -1101 0 
-180 -242 -195 0 
-180 242 195 0 
180 -195 196 0 
180 -242 195 0 
180 242 -195 0 
180 -1100 1101 0 
-181 -195 0 
-181 -1102 0 
-181 -243 -194 0 
-181 243 194 0 
181 -194 195 0 
181 -243 194 0 
181 243 -194 0 
181 -1101 1102 0 
-182 -194 0 
-182 -1103 0 
-182 -244 -193 0 
-182 244 193 0 
182 -193 194 0 
182 -244 193 0 
182 244 -193 0 
182 -1102 1103 0 
-183 -193 0 
-183 -1104 0 
-183 -245 -192 0 
-183 245 192 0 
183 -192 193 0 
183 -245 192 0 
183 245 -192 0 
183 -1103 1104 0 
-184 -192 0 
-184 -1105 0 
-184 -246 -191 0 
-184 246 191 0 
184 -191 192 0 
184 -246 191 0 
184 246 -191 0 
184 -1104 1105 0 
-185 -191 0 
-185 -1106 0 
-185 -247 -190 0 
-185 247 190 0 
185 -190 191 0 
185 -247 190 0 
185 247 -190 0 
185 -1105 1106 0 
-186 -190 0 
-186 -1107 0 
-186 -248 -189 0 
-186 248 189 0 
186 -189 190 0 
186 -248 189 0 
186 248 -189 0 
186 -1106 1107 0 
-187 -189 0 
-187 -1108 0 
-187 -249 188 0 
-187 249 -188 0 
187 188 189 0 
187 -249 -188 0 
187 249 188 0 
187 -1107 1108 0 
-188 -189 0 
-188 -340 0 
188 -463 0 
188 -1108 0 
189 -190 0 
190 -191 0 
191 -192 0 
192 -193 0 
193 -194 0 
194 -195 0 
195 -196 0 
196 -197 0 
197 -198 0 
198 -199 0 
199 -200 0 
200 -201 0 
201 -202 0 
202 -203 0 
203 -204 0 
204 -205 0 
205 -206 0 
206 -207 0 
207 -208 0 
208 -209 0 
209 -210 0 
210 -211 0 
211 -212 0 
212 -213 0 
213 -214 0 
214 -215 0 
215 -216 0 
216 -217 0 
217 -218 0 
-220 -250 0 
220 -251 0 
-221 -253 0 
221 -254 0 
-222 -256 0 
222 -257 0 
-223 -259 0 
223 -260 0 
-224 -262 0 
224 -263 0 
-225 -265 0 
225 -266 0 
-226 -268 0 
226 -269 0 
-227 -271 0 
227 -272 0 
-228 -274 0 
228 -275 0 
-229 -277 0 
229 -278 0 
-230 -280 0 
230 -281 0 
-231 -283 0 
231 -284 0 
-232 -286 0 
232 -287 0 
-233 -289 0 
233 -290 0 
-234 -292 0 
234 -293 0 
-235 -295 0 
235 -296 0 
-236 -298 0 
236 -299 0 
-237 -301 0 
237 -302 0 
-238 -304 0 
238 -305 0 
-239 -307 0 
239 -308 0 
-240 -310 0 
240 -311 0 
-241 -313 0 
241 -314 0 
-242 -316 0 
242 -317 0 
-243 -319 0 
243 -320 0 
-244 -322 0 
244 -323 0 
-245 -325 0 
245 -326 0 
-246 -328 0 
246 -329 0 
-247 -331 0 
247 -332 0 
-248 -334 0 
248 -335 0 
-249 -337 0 
249 -338 0 
-250 -252 0 
250 251 252 0 
-251 -252 0 
-251 -400 0 
251 399 400 0 
-252 -403 0 
-252 398 399 0 
252 -399 0 
252 -398 403 0 
-253 -255 0 
253 254 255 0 
-254 -255 0 
-254 -398 0 
254 397 398 0 
-255 -405 0 
-255 396 397 0 
255 -397 0 
255 -396 405 0 
-256 -258 0 
256 257 258 0 
-257 -258 0 
-257 -396 0 
257 395 396 0 
-258 -407 0 
-258 394 395 0 
258 -395 0 
258 -394 407 0 
-259 -261 0 
259 260 261 0 
-260 -261 0 
-260 -394 0 
260 393 394 0 
-261 -409 0 
-261 392 393 0 
261 -393 0 
261 -392 409 0 
-262 -264 0 
262 263 264 0 
-263 -264 0 
-263 -392 0 
263 391 392 0 
-264 -411 0 
-264 390 391 0 
264 -391 0 
264 -390 411 0 
-265 -267 0 
265 266 267 0 
-266 -267 0 
-266 -390 0 
266 389 390 0 
-267 -413 0 
-267 388 389 0 
267 -389 0 
267 -388 413 0 
-268 -270 0 
268 269 270 0 
-269 -270 0 
-269 -388 0 
269 387 388 0 
-270 -415 0 
-270 386 387 0 
270 -387 0 
270 -386 415 0 
-271 -273 0 
271 272 273 0 
-272 -273 0 
-272 -386 0 
272 385 386 0 
-273 -417 0 
-273 384 385 0 
273 -385 0 
273 -384 417 0 
-274 -276 0 
274 275 276 0 
-275 -276 0 
-275 -384 0 
275 383 384 0 
-276 -419 0 
-276 382 383 0 
276 -383 0 
276 -382 419 0 
-277 -279 0 
277 278 279 0 
-278 -279 0 
-278 -382 0 
278 381 382 0 
-279 -421 0 
-279 380 381 0 
279 -381 0 
279 -380 421 0 
-280 -282 0 
280 281 282 0 
-281 -282 0 
-281 -380 0 
281 379 380 0 
-282 -423 0 
-282 378 379 0 
282 -379 0 
282 -378 423 0 
-283 -285 0 
283 284 285 0 
-284 -285 0 
-284 -378 0 
284 377 378 0 
-285 -425 0 
-285 376 377 0 
285 -377 0 
285 -376 425 0 
-286 -288 0 
286 287 288 0 
-287 -288 0 
-287 -376 0 
287 375 376 0 
-288 -427 0 
-288 374 375 0 
288 -375 0 
288 -374 427 0 
-289 -291 0 
289 290 291 0 
-290 -291 0 
-290 -374 0 
290 373 374 0 
-291 -429 0 
-291 372 373 0 
291 -373 0 
291 -372 429 0 
-292 -294 0 
292 293 294 0 
-293 -294 0 
-293 -372 0 
293 371 372 0 
-294 -431 0 
-294 370 371 0 
294 -371 0 
294 -370 431 0 
-295 -297 0 
295 296 297 0 
-296 -297 0 
-296 -370 0 
296 369 370 0 
-297 -433 0 
-297 368 369 0 
297 -369 0 
297 -368 433 0 
-298 -300 0 
298 299 300 0 
-299 -300 0 
-299 -368 0 
299 367 368 0 
-300 -435 0 
-300 366 367 0 
300 -367 0 
300 -366 435 0 
-301 -303 0 
301 302 303 0 
-302 -303 0 
-302 -366 0 
302 365 366 0 
-303 -437 0 
-303 364 365 0 
303 -365 0 
303 -364 437 0 
-304 -306 0 
304 305 306 0 
-305 -306 0 
-305 -364 0 
305 363 364 0 
-306 -439 0 
-306 362 363 0 
306 -363 0 
306 -362 439 0 
-307 -309 0 
307 308 309 0 
-308 -309 0 
-308 -362 0 
308 361 362 0 
-309 -441 0 
-309 360 361 0 
309 -361 0 
309 -360 441 0 
-310 -312 0 
310 311 312 0 
-311 -312 0 
-311 -360 0 
311 359 360 0 
-312 -443 0 
-312 358 359 0 
312 -359 0 
312 -358 443 0 
-313 -315 0 
313 314 315 0 
-314 -315 0 
-314 -358 0 
314 357 358 0 
-315 -445 0 
-315 356 357 0 
315 -357 0 
315 -356 445 0 
-316 -318 0 
316 317 318 0 
-317 -318 0 
-317 -356 0 
317 355 356 0 
-318 -447 0 
-318 354 355 0 
318 -355 0 
318 -354 447 0 
-319 -321 0 
319 320 321 0 
-320 -321 0 
-320 -354 0 
320 353 354 0 
-321 -449 0 
-321 352 353 0 
321 -353 0 
321 -352 449 0 
-322 -324 0 
322 323 324 0 
-323 -324 0 
-323 -352 0 
323 351 352 0 
-324 -451 0 
-324 350 351 0 
324 -351 0 
324 -350 451 0 
-325 -327 0 
325 326 327 0 
-326 -327 0 
-326 -350 0 
326 349 350 0 
-327 -453 0 
-327 348 349 0 
327 -349 0 
327 -348 453 0 
-328 -330 0 
328 329 330 0 
-329 -330 0 
-329 -348 0 
329 347 348 0 
-330 -455 0 
-330 346 347 0 
330 -347 0 
330 -346 455 0 
-331 -333 0 
331 332 333 0 
-332 -333 0 
-332 -346 0 
332 345 346 0 
-333 -457 0 
-333 344 345 0 
333 -345 0 
333 -344 457 0 
-334 -336 0 
334 335 336 0 
-335 -336 0 
-335 -344 0 
335 343 344 0 
-336 -459 0 
-336 342 343 0 
336 -343 0 
336 -342 459 0 
-337 -339 0 
337 338 339 0 
-338 -339 0 
-338 -342 0 
338 341 342 0 
-339 -461 0 
-339 -340 341 0 
339 -341 0 
339 340 461 0 
-340 -461 0 
-340 -464 0 
340 -341 0 
340 463 464 0 
-341 -342 0 
-341 -462 0 
341 461 462 0 
-342 -343 0 
342 -459 0 
-343 -344 0 
-343 -460 0 
343 459 460 0 
-344 -345 0 
344 -457 0 
-345 -346 0 
-345 -458 0 
345 457 458 0 
-346 -347 0 
346 -455 0 
-347 -348 0 
-347 -456 0 
347 455 456 0 
-348 -349 0 
348 -453 0 
-349 -350 0 
-349 -454 0 
349 453 454 0 
-350 -351 0 
350 -451 0 
-351 -352 0 
-351 -452 0 
351 451 452 0 
-352 -353 0 
352 -449 0 
-353 -354 0 
-353 -450 0 
353 449 450 0 
-354 -355 0 
354 -447 0 
-355 -356 0 
-355 -448 0 
355 447 448 0 
-356 -357 0 
356 -445 0 
-357 -358 0 
-357 -446 0 
357 445 446 0 
-358 -359 0 
358 -443 0 
-359 -360 0 
-359 -444 0 
359 443 444 0 
-360 -361 0 
360 -441 0 
-361 -362 0 
-361 -442 0 
361 441 442 0 
-362 -363 0 
362 -439 0 
-363 -364 0 
-363 -440 0 
363 439 440 0 
-364 -365 0 
364 -437 0 
-365 -366 0 
-365 -438 0 
365 437 438 0 
-366 -367 0 
366 -435 0 
-367 -368 0 
-367 -436 0 
367 435 436 0 
-368 -369 0 
368 -433 0 
-369 -370 0 
-369 -434 0 
369 433 434 0 
-370 -371 0 
370 -431 0 
-371 -372 0 
-371 -432 0 
371 431 432 0 
-372 -373 0 
372 -429 0 
-373 -374 0 
-373 -430 0 
373 429 430 0 
-374 -375 0 
374 -427 0 
-375 -376 0 
-375 -428 0 
375 427 428 0 
-376 -377 0 
376 -425 0 
-377 -378 0 
-377 -426 0 
377 425 426 0 
-378 -379 0 
378 -423 0 
-379 -380 0 
-379 -424 0 
379 423 424 0 
-380 -381 0 
380 -421 0 
-381 -382 0 
-381 -422 0 
381 421 422 0 
-382 -383 0 
382 -419 0 
-383 -384 0 
-383 -420 0 
383 419 420 0 
-384 -385 0 
384 -417 0 
-385 -386 0 
-385 -418 0 
385 417 418 0 
-386 -387 0 
386 -415 0 
-387 -388 0 
-387 -416 0 
387 415 416 0 
-388 -389 0 
388 -413 0 
-389 -390 0 
-389 -414 0 
389 413 414 0 
-390 -391 0 
390 -411 0 
-391 -392 0 
-391 -412 0 
391 411 412 0 
-392 -393 0 
392 -409 0 
-393 -394 0 
-393 -410 0 
393 409 410 0 
-394 -395 0 
394 -407 0 
-395 -396 0 
-395 -408 0 
395 407 408 0 
-396 -397 0 
396 -405 0 
-397 -398 0 
-397 -406 0 
397 405 406 0 
-398 -399 0 
398 -403 0 
-399 -400 0 
-399 -404 0 
399 403 404 0 
-400 -402 401 0 
-400 402 -401 0 
400 -402 -401 0 
400 402 401 0 
-403 -404 0 
-404 -465 0 
404 -466 0 
-405 -406 0 
-406 -468 0 
406 -469 0 
-407 -408 0 
-408 -471 0 
408 -472 0 
-409 -410 0 
-410 -474 0 
410 -475 0 
-411 -412 0 
-412 -477 0 
412 -478 0 
-413 -414 0 
-414 -480 0 
414 -481 0 
-415 -416 0 
-416 -483 0 
416 -484 0 
-417 -418 0 
-418 -486 0 
418 -487 0 
-419 -420 0 
-420 -489 0 
420 -490 0 
-421 -422 0 
-422 -492 0 
422 -493 0 
-423 -424 0 
-424 -495 0 
424 -496 0 
-425 -426 0 
-426 -498 0 
426 -499 0 
-427 -428 0 
-428 -501 0 
428 -502 0 
-429 -430 0 
-430 -504 0 
430 -505 0 
-431 -432 0 
-432 -507 0 
432 -508 0 
-433 -434 0 
-434 -510 0 
434 -511 0 
-435 -436 0 
-436 -513 0 
436 -514 0 
-437 -438 0 
-438 -516 0 
438 -517 0 
-439 -440 0 
-440 -519 0 
440 -520 0 
-441 -442 0 
-442 -522 0 
442 -523 0 
-443 -444 0 
-444 -525 0 
444 -526 0 
-445 -446 0 
-446 -528 0 
446 -529 0 
-447 -448 0 
-448 -531 0 
448 -532 0 
-449 -450 0 
-450 -534 0 
450 -535 0 
-451 -452 0 
-452 -537 0 
452 -538 0 
-453 -454 0 
-454 -540 0 
454 -541 0 
-455 -456 0 
-456 -543 0 
456 -544 0 
-457 -458 0 
-458 -546 0 
458 -547 0 
-459 -460 0 
-460 -549 0 
460 -550 0 
-461 -462 0 
-462 -552 0 
462 -553 0 
-463 -464 0 
-464 -678 0 
464 -555 0 
-465 -467 0 
465 466 467 0 
-466 -467 0 
-466 -615 0 
466 614 615 0 
-467 -618 0 
-467 613 614 0 
467 -614 0 
467 -613 618 0 
-468 -470 0 
468 469 470 0 
-469 -470 0 
-469 -613 0 
469 612 613 0 
-470 -620 0 
-470 611 612 0 
470 -612 0 
470 -611 620 0 
-471 -473 0 
471 472 473 0 
-472 -473 0 
-472 -611 0 
472 610 611 0 
-473 -622 0 
-473 609 610 0 
473 -610 0 
473 -609 622 0 
-474 -476 0 
474 475 476 0 
-475 -476 0 
-475 -609 0 
475 608 609 0 
-476 -624 0 
-476 607 608 0 
476 -608 0 
476 -607 624 0 
-477 -479 0 
477 478 479 0 
-478 -479 0 
-478 -607 0 
478 606 607 0 
-479 -626 0 
-479 605 606 0 
479 -606 0 
479 -605 626 0 
-480 -482 0 
480 481 482 0 
-481 -482 0 
-481 -605 0 
481 604 605 0 
-482 -628 0 
-482 603 604 0 
482 -604 0 
482 -603 628 0 
-483 -485 0 
483 484 485 0 
-484 -485 0 
-484 -603 0 
484 602 603 0 
-485 -630 0 
-485 601 602 0 
485 -602 0 
485 -601 630 0 
-486 -488 0 
486 487 488 0 
-487 -488 0 
-487 -601 0 
487 600 601 0 
-488 -632 0 
-488 599 600 0 
488 -600 0 
488 -599 632 0 
-489 -491 0 
489 490 491 0 
-490 -491 0 
-490 -599 0 
490 598 599 0 
-491 -634 0 
-491 597 598 0 
491 -598 0 
491 -597 634 0 
-492 -494 0 
492 493 494 0 
-493 -494 0 
-493 -597 0 
493 596 597 0 
-494 -636 0 
-494 595 596 0 
494 -596 0 
494 -595 636 0 
-495 -497 0 
495 496 497 0 
-496 -497 0 
-496 -595 0 
496 594 595 0 
-497 -638 0 
-497 593 594 0 
497 -594 0 
497 -593 638 0 
-498 -500 0 
498 499 500 0 
-499 -500 0 
-499 -593 0 
499 592 593 0 
-500 -640 0 
-500 591 592 0 
500 -592 0 
500 -591 640 0 
-501 -503 0 
501 502 503 0 
-502 -503 0 
-502 -591 0 
502 590 591 0 
-503 -642 0 
-503 589 590 0 
503 -590 0 
503 -589 642 0 
-504 -506 0 
504 505 506 0 
-505 -506 0 
-505 -589 0 
505 588 589 0 
-506 -644 0 
-506 587 588 0 
506 -588 0 
506 -587 644 0 
-507 -509 0 
507 508 509 0 
-508 -509 0 
-508 -587 0 
508 586 587 0 
-509 -646 0 
-509 585 586 0 
509 -586 0 
509 -585 646 0 
-510 -512 0 
510 511 512 0 
-511 -512 0 
-511 -585 0 
511 584 585 0 
-512 -648 0 
-512 583 584 0 
512 -584 0 
512 -583 648 0 
-513 -515 0 
513 514 515 0 
-514 -515 0 
-514 -583 0 
514 582 583 0 
-515 -650 0 
-515 581 582 0 
515 -582 0 
515 -581 650 0 
-516 -518 0 
516 517 518 0 
-517 -518 0 
-517 -581 0 
517 580 581 0 
-518 -652 0 
-518 579 580 0 
518 -580 0 
518 -579 652 0 
-519 -521 0 
519 520 521 0 
-520 -521 0 
-520 -579 0 
520 578 579 0 
-521 -654 0 
-521 577 578 0 
521 -578 0 
521 -577 654 0 
-522 -524 0 
522 523 524 0 
-523 -524 0 
-523 -577 0 
523 576 577 0 
-524 -656 0 
-524 575 576 0 
524 -576 0 
524 -575 656 0 
-525 -527 0 
525 526 527 0 
-526 -527 0 
-526 -575 0 
526 574 575 0 
-527 -658 0 
-527 573 574 0 
527 -574 0 
527 -573 658 0 
-528 -530 0 
528 529 530 0 
-529 -530 0 
-529 -573 0 
529 572 573 0 
-530 -660 0 
-530 571 572 0 
530 -572 0 
530 -571 660 0 
-531 -533 0 
531 532 533 0 
-532 -533 0 
-532 -571 0 
532 570 571 0 
-533 -662 0 
-533 569 570 0 
533 -570 0 
533 -569 662 0 
-534 -536 0 
534 535 536 0 
-535 -536 0 
-535 -569 0 
535 568 569 0 
-536 -664 0 
-536 567 568 0 
536 -568 0 
536 -567 664 0 
-537 -539 0 
537 538 539 0 
-538 -539 0 
-538 -567 0 
538 566 567 0 
-539 -666 0 
-539 565 566 0 
539 -566 0 
539 -565 666 0 
-540 -542 0 
540 541 542 0 
-541 -542 0 
-541 -565 0 
541 564 565 0 
-542 -668 0 
-542 563 564 0 
542 -564 0 
542 -563 668 0 
-543 -545 0 
543 544 545 0 
-544 -545 0 
-544 -563 0 
544 562 563 0 
-545 -670 0 
-545 561 562 0 
545 -562 0 
545 -561 670 0 
-546 -548 0 
546 547 548 0 
-547 -548 0 
-547 -561 0 
547 560 561 0 
-548 -672 0 
-548 559 560 0 
548 -560 0 
548 -559 672 0 
-549 -551 0 
549 550 551 0 
-550 -551 0 
-550 -559 0 
550 558 559 0 
-551 -674 0 
-551 557 558 0 
551 -558 0 
551 -557 674 0 
-552 -554 0 
552 553 554 0 
-553 -554 0 
-553 -557 0 
553 556 557 0 
-554 -676 0 
-554 -555 556 0 
554 -556 0 
554 555 676 0 
-555 -676 0 
-555 -679 0 
555 -556 0 
555 678 679 0 
-556 -557 0 
-556 -677 0 
556 676 677 0 
-557 -558 0 
557 -674 0 
-558 -559 0 
-558 -675 0 
558 674 675 0 
-559 -560 0 
559 -672 0 
-560 -561 0 
-560 -673 0 
560 672 673 0 
-561 -562 0 
561 -670 0 
-562 -563 0 
-562 -671 0 
562 670 671 0 
-563 -564 0 
563 -668 0 
-564 -565 0 
-564 -669 0 
564 668 669 0 
-565 -566 0 
565 -666 0 
-566 -567 0 
-566 -667 0 
566 666 667 0 
-567 -568 0 
567 -664 0 
-568 -569 0 
-568 -665 0 
568 664 665 0 
-569 -570 0 
569 -662 0 
-570 -571 0 
-570 -663 0 
570 662 663 0 
-571 -572 0 
571 -660 0 
-572 -573 0 
-572 -661 0 
572 660 661 0 
-573 -574 0 
573 -658 0 
-574 -575 0 
-574 -659 0 
574 658 659 0 
-575 -576 0 
575 -656 0 
-576 -577 0 
-576 -657 0 
576 656 657 0 
-577 -578 0 
577 -654 0 
-578 -579 0 
-578 -655 0 
578 654 655 0 
-579 -580 0 
579 -652 0 
-580 -581 0 
-580 -653 0 
580 652 653 0 
-581 -582 0 
581 -650 0 
-582 -583 0 
-582 -651 0 
582 650 651 0 
-583 -584 0 
583 -648 0 
-584 -585 0 
-584 -649 0 
584 648 649 0 
-585 -586 0 
585 -646 0 
-586 -587 0 
-586 -647 0 
586 646 647 0 
-587 -588 0 
587 -644 0 
-588 -589 0 
-588 -645 0 
588 644 645 0 
-589 -590 0 
589 -642 0 
-590 -591 0 
-590 -643 0 
590 642 643 0 
-591 -592 0 
591 -640 0 
-592 -593 0 
-592 -641 0 
592 640 641 0 
-593 -594 0 
593 -638 0 
-594 -595 0 
-594 -639 0 
594 638 639 0 
-595 -596 0 
595 -636 0 
-596 -597 0 
-596 -637 0 
596 636 637 0 
-597 -598 0 
597 -634 0 
-598 -599 0 
-598 -635 0 
598 634 635 0 
-599 -600 0 
599 -632 0 
-600 -601 0 
-600 -633 0 
600 632 633 0 
-601 -602 0 
601 -630 0 
-602 -603 0 
-602 -631 0 
602 630 631 0 
-603 -604 0 
603 -628 0 
-604 -605 0 
-604 -629 0 
604 628 629 0 
-605 -606 0 
605 -626 0 
-606 -607 0 
-606 -627 0 
606 626 627 0 
-607 -608 0 
607 -624 0 
-608 -609 0 
-608 -625 0 
608 624 625 0 
-609 -610 0 
609 -622 0 
-610 -611 0 
-610 -623 0 
610 622 623 0 
-611 -612 0 
611 -620 0 
-612 -613 0 
-612 -621 0 
612 620 621 0 
-613 -614 0 
613 -618 0 
-614 -615 0 
-614 -619 0 
614 618 619 0 
-615 -617 616 0 
-615 617 -616 0 
615 -617 -616 0 
615 617 616 0 
-618 -619 0 
-619 -680 0 
619 -681 0 
-620 -621 0 
-621 -683 0 
621 -684 0 
-622 -623 0 
-623 -686 0 
623 -687 0 
-624 -625 0 
-625 -689 0 
625 -690 0 
-626 -627 0 
-627 -692 0 
627 -693 0 
-628 -629 0 
-629 -695 0 
629 -696 0 
-630 -631 0 
-631 -698 0 
631 -699 0 
-632 -633 0 
-633 -701 0 
633 -702 0 
-634 -635 0 
-635 -704 0 
635 -705 0 
-636 -637 0 
-637 -707 0 
637 -708 0 
-638 -639 0 
-639 -710 0 
639 -711 0 
-640 -641 0 
-641 -713 0 
641 -714 0 
-642 -643 0 
-643 -716 0 
643 -717 0 
-644 -645 0 
-645 -719 0 
645 -720 0 
-646 -647 0 
-647 -722 0 
647 -723 0 
-648 -649 0 
-649 -725 0 
649 -726 0 
-650 -651 0 
-651 -728 0 
651 -729 0 
-652 -653 0 
-653 -731 0 
653 -732 0 
-654 -655 0 
-655 -734 0 
655 -735 0 
-656 -657 0 
-657 -737 0 
657 -738 0 
-658 -659 0 
-659 -740 0 
659 -741 0 
-660 -661 0 
-661 -743 0 
661 -744 0 
-662 -663 0 
-663 -746 0 
663 -747 0 
-664 -665 0 
-665 -749 0 
665 -750 0 
-666 -667 0 
-667 -752 0 
667 -753 0 
-668 -669 0 
-669 -755 0 
669 -756 0 
-670 -671 0 
-671 -758 0 
671 -759 0 
-672 -673 0 
-673 -761 0 
673 -762 0 
-674 -675 0 
-675 -764 0 
675 -765 0 
-676 -677 0 
-677 -767 0 
677 -768 0 
-678 -679 0 
-679 -893 0 
679 -770 0 
-680 -682 0 
680 681 682 0 
-681 -682 0 
-681 -830 0 
681 829 830 0 
-682 -833 0 
-682 828 829 0 
682 -829 0 
682 -828 833 0 
-683 -685 0 
683 684 685 0 
-684 -685 0 
-684 -828 0 
684 827 828 0 
-685 -835 0 
-685 826 827 0 
685 -827 0 
685 -826 835 0 
-686 -688 0 
686 687 688 0 
-687 -688 0 
-687 -826 0 
687 825 826 0 
-688 -837 0 
-688 824 825 0 
688 -825 0 
688 -824 837 0 
-689 -691 0 
689 690 691 0 
-690 -691 0 
-690 -824 0 
690 823 824 0 
-691 -839 0 
-691 822 823 0 
691 -823 0 
691 -822 839 0 
-692 -694 0 
692 693 694 0 
-693 -694 0 
-693 -822 0 
693 821 822 0 
-694 -841 0 
-694 820 821 0 
694 -821 0 
694 -820 841 0 
-695 -697 0 
695 696 697 0 
-696 -697 0 
-696 -820 0 
696 819 820 0 
-697 -843 0 
-697 818 819 0 
697 -819 0 
697 -818 843 0 
-698 -700 0 
698 699 700 0 
-699 -700 0 
-699 -818 0 
699 817 818 0 
-700 -845 0 
-700 816 817 0 
700 -817 0 
700 -816 845 0 
-701 -703 0 
701 702 703 0 
-702 -703 0 
-702 -816 0 
702 815 816 0 
-703 -847 0 
-703 814 815 0 
703 -815 0 
703 -814 847 0 
-704 -706 0 
704 705 706 0 
-705 -706 0 
-705 -814 0 
705 813 814 0 
-706 -849 0 
-706 812 813 0 
706 -813 0 
706 -812 849 0 
-707 -709 0 
707 708 709 0 
-708 -709 0 
-708 -812 0 
708 811 812 0 
-709 -851 0 
-709 810 811 0 
709 -811 0 
709 -810 851 0 
-710 -712 0 
710 711 712 0 
-711 -712 0 
-711 -810 0 
711 809 810 0 
-712 -853 0 
-712 808 809 0 
712 -809 0 
712 -808 853 0 
-713 -715 0 
713 714 715 0 
-714 -715 0 
-714 -808 0 
714 807 808 0 
-715 -855 0 
-715 806 807 0 
715 -807 0 
715 -806 855 0 
-716 -718 0 
716 717 718 0 
-717 -718 0 
-717 -806 0 
717 805 806 0 
-718 -857 0 
-718 804 805 0 
718 -805 0 
718 -804 857 0 
-719 -721 0 
719 720 721 0 
-720 -721 0 
-720 -804 0 
720 803 804 0 
-721 -859 0 
-721 802 803 0 
721 -803 0 
721 -802 859 0 
-722 -724 0 
722 723 724 0 
-723 -724 0 
-723 -802 0 
723 801 802 0 
-724 -861 0 
-724 800 801 0 
724 -801 0 
724 -800 861 0 
-725 -727 0 
725 726 727 0 
-726 -727 0 
-726 -800 0 
726 799 800 0 
-727 -863 0 
-727 798 799 0 
727 -799 0 
727 -798 863 0 
-728 -730 0 
728 729 730 0 
-729 -730 0 
-729 -798 0 
729 797 798 0 
-730 -865 0 
-730 796 797 0 
730 -797 0 
730 -796 865 0 
-731 -733 0 
731 732 733 0 
-732 -733 0 
-732 -796 0 
732 795 796 0 
-733 -867 0 
-733 794 795 0 
733 -795 0 
733 -794 867 0 
-734 -736 0 
734 735 736 0 
-735 -736 0 
-735 -794 0 
735 793 794 0 
-736 -869 0 
-736 792 793 0 
736 -793 0 
736 -792 869 0 
-737 -739 0 
737 738 739 0 
-738 -739 0 
-738 -792 0 
738 791 792 0 
-739 -871 0 
-739 790 791 0 
739 -791 0 
739 -790 871 0 
-740 -742 0 
740 741 742 0 
-741 -742 0 
-741 -790 0 
741 789 790 0 
-742 -873 0 
-742 788 789 0 
742 -789 0 
742 -788 873 0 
-743 -745 0 
743 744 745 0 
-744 -745 0 
-744 -788 0 
744 787 788 0 
-745 -875 0 
-745 786 787 0 
745 -787 0 
745 -786 875 0 
-746 -748 0 
746 747 748 0 
-747 -748 0 
-747 -786 0 
747 785 786 0 
-748 -877 0 
-748 784 785 0 
748 -785 0 
748 -784 877 0 
-749 -751 0 
749 750 751 0 
-750 -751 0 
-750 -784 0 
750 783 784 0 
-751 -879 0 
-751 782 783 0 
751 -783 0 
751 -782 879 0 
-752 -754 0 
752 753 754 0 
-753 -754 0 
-753 -782 0 
753 781 782 0 
-754 -881 0 
-754 780 781 0 
754 -781 0 
754 -780 881 0 
-755 -757 0 
755 756 757 0 
-756 -757 0 
-756 -780 0 
756 779 780 0 
-757 -883 0 
-757 778 779 0 
757 -779 0 
757 -778 883 0 
-758 -760 0 
758 759 760 0 
-759 -760 0 
-759 -778 0 
759 777 778 0 
-760 -885 0 
-760 776 777 0 
760 -777 0 
760 -776 885 0 
-761 -763 0 
761 762 763 0 
-762 -763 0 
-762 -776 0 
762 775 776 0 
-763 -887 0 
-763 774 775 0 
763 -775 0 
763 -774 887 0 
-764 -766 0 
764 765 766 0 
-765 -766 0 
-765 -774 0 
765 773 774 0 
-766 -889 0 
-766 772 773 0 
766 -773 0 
766 -772 889 0 
-767 -769 0 
767 768 769 0 
-768 -769 0 
-768 -772 0 
768 771 772 0 
-769 -891 0 
-769 -770 771 0 
769 -771 0 
769 770 891 0 
-770 -891 0 
-770 -894 0 
770 -771 0 
770 893 894 0 
-771 -772 0 
-771 -892 0 
771 891 892 0 
-772 -773 0 
772 -889 0 
-773 -774 0 
-773 -890 0 
773 889 890 0 
-774 -775 0 
774 -887 0 
-775 -776 0 
-775 -888 0 
775 887 888 0 
-776 -777 0 
776 -885 0 
-777 -778 0 
-777 -886 0 
777 885 886 0 
-778 -779 0 
778 -883 0 
-779 -780 0 
-779 -884 0 
779 883 884 0 
-780 -781 0 
780 -881 0 
-781 -782 0 
-781 -882 0 
781 881 882 0 
-782 -783 0 
782 -879 0 
-783 -784 0 
-783 -880 0 
783 879 880 0 
-784 -785 0 
784 -877 0 
-785 -786 0 
-785 -878 0 
785 877 878 0 
-786 -787 0 
786 -875 0 
-787 -788 0 
-787 -876 0 
787 875 876 0 
-788 -789 0 
788 -873 0 
-789 -790 0 
-789 -874 0 
789 873 874 0 
-790 -791 0 
790 -871 0 
-791 -792 0 
-791 -872 0 
791 871 872 0 
-792 -793 0 
792 -869 0 
-793 -794 0 
-793 -870 0 
793 869 870 0 
-794 -795 0 
794 -867 0 
-795 -796 0 
-795 -868 0 
795 867 868 0 
-796 -797 0 
796 -865 0 
-797 -798 0 
-797 -866 0 
797 865 866 0 
-798 -799 0 
798 -863 0 
-799 -800 0 
-799 -864 0 
799 863 864 0 
-800 -801 0 
800 -861 0 
-801 -802 0 
-801 -862 0 
801 861 862 0 
-802 -803 0 
802 -859 0 
-803 -804 0 
-803 -860 0 
803 859 860 0 
-804 -805 0 
804 -857 0 
-805 -806 0 
-805 -858 0 
805 857 858 0 
-806 -807 0 
806 -855 0 
-807 -808 0 
-807 -856 0 
807 855 856 0 
-808 -809 0 
808 -853 0 
-809 -810 0 
-809 -854 0 
809 853 854 0 
-810 -811 0 
810 -851 0 
-811 -812 0 
-811 -852 0 
811 851 852 0 
-812 -813 0 
812 -849 0 
-813 -814 0 
-813 -850 0 
813 849 850 0 
-814 -815 0 
814 -847 0 
-815 -816 0 
-815 -848 0 
815 847 848 0 
-816 -817 0 
816 -845 0 
-817 -818 0 
-817 -846 0 
817 845 846 0 
-818 -819 0 
818 -843 0 
-819 -820 0 
-819 -844 0 
819 843 844 0 
-820 -821 0 
820 -841 0 
-821 -822 0 
-821 -842 0 
821 841 842 0 
-822 -823 0 
822 -839 0 
-823 -824 0 
-823 -840 0 
823 839 840 0 
-824 -825 0 
824 -837 0 
-825 -826 0 
-825 -838 0 
825 837 838 0 
-826 -827 0 
826 -835 0 
-827 -828 0 
-827 -836 0 
827 835 836 0 
-828 -829 0 
828 -833 0 
-829 -830 0 
-829 -834 0 
829 833 834 0 
-830 -832 831 0 
-830 832 -831 0 
830 -832 -831 0 
830 832 831 0 
-832 955 0 
832 -955 0 
-833 -834 0 
-834 -895 0 
834 895 0 
-835 -836 0 
-836 -897 0 
836 897 0 
-837 -838 0 
-838 -899 0 
838 899 0 
-839 -840 0 
-840 -901 0 
840 901 0 
-841 -842 0 
-842 -903 0 
842 903 0 
-843 -844 0 
-844 -905 0 
844 905 0 
-845 -846 0 
-846 -907 0 
846 907 0 
-847 -848 0 
-848 -909 0 
848 909 0 
-849 -850 0 
-850 -911 0 
850 911 0 
-851 -852 0 
-852 -913 0 
852 913 0 
-853 -854 0 
-854 -915 0 
854 915 0 
-855 -856 0 
-856 -917 0 
856 917 0 
-857 -858 0 
-858 -919 0 
858 919 0 
-859 -860 0 
-860 -921 0 
860 921 0 
-861 -862 0 
-862 -923 0 
862 923 0 
-863 -864 0 
-864 -925 0 
864 925 0 
-865 -866 0 
-866 -927 0 
866 927 0 
-867 -868 0 
-868 -929 0 
868 929 0 
-869 -870 0 
-870 -931 0 
870 931 0 
-871 -872 0 
-872 -933 0 
872 933 0 
-873 -874 0 
-874 -935 0 
874 935 0 
-875 -876 0 
-876 -937 0 
876 937 0 
-877 -878 0 
-878 -939 0 
878 939 0 
-879 -880 0 
-880 -941 0 
880 941 0 
-881 -882 0 
-882 -943 0 
882 943 0 
-883 -884 0 
-884 -945 0 
884 945 0 
-885 -886 0 
-886 -947 0 
886 947 0 
-887 -888 0 
-888 -949 0 
888 949 0 
-889 -890 0 
-890 -951 0 
890 951 0 
-891 -892 0 
-892 -953 0 
892 953 0 
-893 -894 0 
-894 -1017 0 
894 1017 0 
-895 -896 0 
895 896 0 
-896 -957 0 
896 957 0 
-897 -898 0 
897 898 0 
-898 -959 0 
898 959 0 
-899 -900 0 
899 900 0 
-900 -961 0 
900 961 0 
-901 -902 0 
901 902 0 
-902 -963 0 
902 963 0 
-903 -904 0 
903 904 0 
-904 -965 0 
904 965 0 
-905 -906 0 
905 906 0 
-906 -967 0 
906 967 0 
-907 -908 0 
907 908 0 
-908 -969 0 
908 969 0 
-909 -910 0 
909 910 0 
-910 -971 0 
910 971 0 
-911 -912 0 
911 912 0 
-912 -973 0 
912 973 0 
-913 -914 0 
913 914 0 
-914 -975 0 
914 975 0 
-915 -916 0 
915 916 0 
-916 -977 0 
916 977 0 
-917 -918 0 
917 918 0 
-918 -979 0 
918 979 0 
-919 -920 0 
919 920 0 
-920 -981 0 
920 981 0 
-921 -922 0 
921 922 0 
-922 -983 0 
922 983 0 
-923 -924 0 
923 924 0 
-924 -985 0 
924 985 0 
-925 -926 0 
925 926 0 
-926 -987 0 
926 987 0 
-927 -928 0 
927 928 0 
-928 -989 0 
928 989 0 
-929 -930 0 
929 930 0 
-930 -991 0 
930 991 0 
-931 -932 0 
931 932 0 
-932 -993 0 
932 993 0 
-933 -934 0 
933 934 0 
-934 -995 0 
934 995 0 
-935 -936 0 
935 936 0 
-936 -997 0 
936 997 0 
-937 -938 0 
937 938 0 
-938 -999 0 
938 999 0 
-939 -940 0 
939 940 0 
-940 -1001 0 
940 1001 0 
-941 -942 0 
941 942 0 
-942 -1003 0 
942 1003 0 
-943 -944 0 
943 944 0 
-944 -1005 0 
944 1005 0 
-945 -946 0 
945 946 0 
-946 -1007 0 
946 1007 0 
-947 -948 0 
947 948 0 
-948 -1009 0 
948 1009 0 
-949 -950 0 
949 950 0 
-950 -1011 0 
950 1011 0 
-951 -952 0 
951 952 0 
-952 -1013 0 
952 1013 0 
-953 -954 0 
953 954 0 
-954 -1015 0 
954 1015 0 
-955 956 0 
955 -956 0 
-956 -1019 0 
956 958 1019 0 
-957 -958 0 
957 958 0 
-958 -1019 0 
-959 -960 0 
959 960 0 
-960 -1020 0 
960 -1019 1020 0 
-961 -962 0 
961 962 0 
-962 -1021 0 
962 -1020 1021 0 
-963 -964 0 
963 964 0 
-964 -1022 0 
964 -1021 1022 0 
-965 -966 0 
965 966 0 
-966 -1023 0 
966 -1022 1023 0 
-967 -968 0 
967 968 0 
-968 -1024 0 
968 -1023 1024 0 
-969 -970 0 
969 970 0 
-970 -1025 0 
970 -1024 1025 0 
-971 -972 0 
971 972 0 
-972 -1026 0 
972 -1025 1026 0 
-973 -974 0 
973 974 0 
-974 -1027 0 
974 -1026 1027 0 
-975 -976 0 
975 976 0 
-976 -1028 0 
976 -1027 1028 0 
-977 -978 0 
977 978 0 
-978 -1029 0 
978 -1028 1029 0 
-979 -980 0 
979 980 0 
-980 -1030 0 
980 -1029 1030 0 
-981 -982 0 
981 982 0 
-982 -1031 0 
982 -1030 1031 0 
-983 -984 0 
983 984 0 
-984 -1032 0 
984 -1031 1032 0 
-985 -986 0 
985 986 0 
-986 -1033 0 
986 -1032 1033 0 
-987 -988 0 
987 988 0 
-988 -1034 0 
988 -1033 1034 0 
-989 -990 0 
989 990 0 
-990 -1035 0 
990 -1034 1035 0 
-991 -992 0 
991 992 0 
-992 -1036 0 
992 -1035 1036 0 
-993 -994 0 
993 994 0 
-994 -1037 0 
994 -1036 1037 0 
-995 -996 0 
995 996 0 
-996 -1038 0 
996 -1037 1038 0 
-997 -998 0 
997 998 0 
-998 -1039 0 
998 -1038 1039 0 
-999 -1000 0 
999 1000 0 
-1000 -1040 0 
1000 -1039 1040 0 
-1001 -1002 0 
1001 1002 0 
-1002 -1041 0 
1002 -1040 1041 0 
-1003 -1004 0 
1003 1004 0 
-1004 -1042 0 
1004 -1041 1042 0 
-1005 -1006 0 
1005 1006 0 
-1006 -1043 0 
1006 -1042 1043 0 
-1007 -1008 0 
1007 1008 0 
-1008 -1044 0 
1008 -1043 1044 0 
-1009 -1010 0 
1009 1010 0 
-1010 -1045 0 
1010 -1044 1045 0 
-1011 -1012 0 
1011 1012 0 
-1012 -1046 0 
1012 -1045 1046 0 
-1013 -1014 0 
1013 1014 0 
-1014 -1047 0 
1014 -1046 1047 0 
-1015 -1016 0 
1015 1016 0 
-1016 -1048 0 
1016 -1047 1048 0 
-1017 -1018 0 
1017 1018 0 
1018 -1048 0 
1019 -1020 0 
1020 -1021 0 
1021 -1022 0 
1022 -1023 0 
1023 -1024 0 
1024 -1025 0 
1025 -1026 0 
1026 -1027 0 
1027 -1028 0 
1028 -1029 0 
1029 -1030 0 
1030 -1031 0 
1031 -1032 0 
1032 -1033 0 
1033 -1034 0 
1034 -1035 0 
1035 -1036 0 
1036 -1037 0 
1037 -1038 0 
1038 -1039 0 
1039 -1040 0 
1040 -1041 0 
1041 -1042 0 
1042 -1043 0 
1043 -1044 0 
1044 -1045 0 
1045 -1046 0 
1046 -1047 0 
1047 -1048 0 
1049 -1050 0 
1050 -1051 0 
1051 -1052 0 
1052 -1053 0 
1053 -1054 0 
1054 -1055 0 
1055 -1056 0 
1056 -1057 0 
1057 -1058 0 
1058 -1059 0 
1059 -1060 0 
1060 -1061 0 
1061 -1062 0 
1062 -1063 0 
1063 -1064 0 
1064 -1065 0 
1065 -1066 0 
1066 -1067 0 
1067 -1068 0 
1068 -1069 0 
1069 -1070 0 
1070 -1071 0 
1071 -1072 0 
1072 -1073 0 
1073 -1074 0 
1074 -1075 0 
1075 -1076 0 
1076 -1077 0 
1077 -1078 0 
1079 -1080 0 
1080 -1081 0 
1081 -1082 0 
1082 -1083 0 
1083 -1084 0 
1084 -1085 0 
1085 -1086 0 
1086 -1087 0 
1087 -1088 0 
1088 -1089 0 
1089 -1090 0 
1090 -1091 0 
1091 -1092 0 
1092 -1093 0 
1093 -1094 0 
1094 -1095 0 
1095 -1096 0 
1096 -1097 0 
1097 -1098 0 
1098 -1099 0 
1099 -1100 0 
1100 -1101 0 
1101 -1102 0 
1102 -1103 0 
1103 -1104 0 
1104 -1105 0 
1105 -1106 0 
1106 -1107 0 
1107 -1108 0 
